JulietBench/Juliet_Based_Patch_Bench/linux/CWE-189-Numeric-Errors/CVE_2016_2070_8b8a321ff72c785ed5e8b4cf6eda20b35d427390/Resulttcp_cwnd_reduction_SnippetEQ.smt2
; benchmark generated from python API
(set-info :status unknown)
(declare-fun R () (_ BitVec 64))
(declare-fun rdi () (_ BitVec 64))
(declare-fun rsi () (_ BitVec 64))
(assert
 (let (($x95 (= (_ bv0 64) R)))
 (let ((?x6 ((_ extract 31 0) rdi)))
 (let (($x28 (bvsge (_ bv0 32) ?x6)))
 (let (($x97 (and $x28 $x95)))
 (let (($x60 (bvslt (_ bv0 32) ?x6)))
 (let ((?x8 ((_ extract 31 0) rsi)))
 (let (($x69 (= (_ bv0 32) ?x8)))
 (let (($x96 (and $x69 $x60 $x95)))
 (let ((?x15 (bvmul (_ bv50 32) ?x6)))
 (let ((?x91 (bvadd (bvadd (_ bv1399 32) ?x8) ?x15)))
 (let ((?x92 (concat (_ bv0 32) ?x91)))
 (let (($x93 (= R ?x92)))
 (let (($x76 (and (distinct (_ bv0 32) ?x8) true)))
 (let (($x94 (and $x76 $x60 $x93)))
 (let (($x98 (or $x94 $x96 $x97)))
 (and $x93 $x98)))))))))))))))))
(check-sat)
